p cnf 15 34
15 -14 -8 0
15 14 -7 0
15 -14 -5 0
-15 14 -3 0
-15 -13 9 0
15 13 -6 0
15 -12 -1 0
-15 -11 5 0
-15 -11 -3 0
15 -8 -2 0
-15 7 2 0
15 5 -2 0
-14 10 9 0
14 -10 -1 0
14 9 -3 0
14 -7 1 0
-14 7 1 0
13 -12 -1 0
13 11 -5 0
-13 10 -4 0
-13 -9 7 0
13 -9 -5 0
-13 5 -2 0
-11 8 -4 0
11 6 5 0
-10 9 6 0
10 -9 -2 0
10 8 5 0
-10 -7 -3 0
-10 6 3 0
-9 -6 -3 0
-9 -5 -4 0
9 -4 2 0
-7 -4 -2 0
